p tw 20 53
0 1
0 10
0 11
0 6
0 17
0 18
0 3
1 11
1 9
1 18
2 3
2 19
3 10
3 14
3 11
3 9
3 7
3 16
3 18
3 6
3 8
4 5
4 7
4 8
4 17
4 10
5 11
5 19
5 6
6 7
6 15
7 11
7 9
7 8
8 9
8 11
8 15
9 18
10 12
10 13
10 18
10 11
10 14
11 19
11 18
11 16
12 13
13 17
14 15
14 16
16 17
16 19
17 18
